c Command line: hgen8 175 10
p cnf 175 273
21 96 80 125 0
134 8 75 84 0
164 36 153 121 0
100 167 149 155 0
52 108 163 106 0
31 58 162 133 0
142 147 67 66 0
59 7 173 85 0
120 5 115 103 0
49 152 60 154 0
174 79 44 28 0
18 15 117 62 0
46 53 43 135 0
166 160 137 138 0
130 4 90 63 0
89 16 68 78 0
30 93 132 175 0
33 116 150 25 0
109 20 22 12 0
77 169 72 35 0
40 38 161 172 0
47 110 165 17 0
151 156 168 86 0
27 83 73 39 0
45 81 145 50 0
107 13 64 92 0
122 118 112 113 0
2 143 111 55 0
127 139 94 140 0
88 70 24 14 0
128 157 1 171 0
141 136 159 51 0
10 37 3 41 0
95 76 34 19 0
42 144 56 97 0
123 114 26 74 0
-1 -2 0
-1 -3 0
-1 -4 0
-1 -5 0
-2 -3 0
-2 -4 0
-2 -5 0
-3 -4 0
-3 -5 0
-4 -5 0
-7 -8 0
-7 -10 0
-8 -10 0
-12 -13 0
-12 -14 0
-12 -15 0
-13 -14 0
-13 -15 0
-14 -15 0
-16 -17 0
-16 -18 0
-16 -19 0
-16 -20 0
-17 -18 0
-17 -19 0
-17 -20 0
-18 -19 0
-18 -20 0
-19 -20 0
-21 -22 0
-21 -24 0
-21 -25 0
-22 -24 0
-22 -25 0
-24 -25 0
-26 -27 0
-26 -28 0
-26 -30 0
-27 -28 0
-27 -30 0
-28 -30 0
-31 -33 0
-31 -34 0
-31 -35 0
-33 -34 0
-33 -35 0
-34 -35 0
-36 -37 0
-36 -38 0
-36 -39 0
-36 -40 0
-37 -38 0
-37 -39 0
-37 -40 0
-38 -39 0
-38 -40 0
-39 -40 0
-41 -42 0
-41 -43 0
-41 -44 0
-41 -45 0
-42 -43 0
-42 -44 0
-42 -45 0
-43 -44 0
-43 -45 0
-44 -45 0
-46 -47 0
-46 -49 0
-46 -50 0
-47 -49 0
-47 -50 0
-49 -50 0
-51 -52 0
-51 -53 0
-51 -55 0
-52 -53 0
-52 -55 0
-53 -55 0
-56 -58 0
-56 -59 0
-56 -60 0
-58 -59 0
-58 -60 0
-59 -60 0
-62 -63 0
-62 -64 0
-63 -64 0
-66 -67 0
-66 -68 0
-66 -70 0
-67 -68 0
-67 -70 0
-68 -70 0
-72 -73 0
-72 -74 0
-72 -75 0
-73 -74 0
-73 -75 0
-74 -75 0
-76 -77 0
-76 -78 0
-76 -79 0
-76 -80 0
-77 -78 0
-77 -79 0
-77 -80 0
-78 -79 0
-78 -80 0
-79 -80 0
-81 -83 0
-81 -84 0
-81 -85 0
-83 -84 0
-83 -85 0
-84 -85 0
-86 -88 0
-86 -89 0
-86 -90 0
-88 -89 0
-88 -90 0
-89 -90 0
-92 -93 0
-92 -94 0
-92 -95 0
-93 -94 0
-93 -95 0
-94 -95 0
-96 -97 0
-96 -100 0
-97 -100 0
-106 -107 0
-106 -108 0
-106 -109 0
-106 -110 0
-107 -108 0
-107 -109 0
-107 -110 0
-108 -109 0
-108 -110 0
-109 -110 0
-111 -112 0
-111 -113 0
-111 -114 0
-111 -115 0
-112 -113 0
-112 -114 0
-112 -115 0
-113 -114 0
-113 -115 0
-114 -115 0
-116 -117 0
-116 -118 0
-116 -120 0
-117 -118 0
-117 -120 0
-118 -120 0
-121 -122 0
-121 -123 0
-121 -125 0
-122 -123 0
-122 -125 0
-123 -125 0
-127 -128 0
-127 -130 0
-128 -130 0
-132 -133 0
-132 -134 0
-132 -135 0
-133 -134 0
-133 -135 0
-134 -135 0
-136 -137 0
-136 -138 0
-136 -139 0
-136 -140 0
-137 -138 0
-137 -139 0
-137 -140 0
-138 -139 0
-138 -140 0
-139 -140 0
-141 -142 0
-141 -143 0
-141 -144 0
-141 -145 0
-142 -143 0
-142 -144 0
-142 -145 0
-143 -144 0
-143 -145 0
-144 -145 0
-147 -149 0
-147 -150 0
-149 -150 0
-151 -152 0
-151 -153 0
-151 -154 0
-151 -155 0
-152 -153 0
-152 -154 0
-152 -155 0
-153 -154 0
-153 -155 0
-154 -155 0
-156 -157 0
-156 -159 0
-156 -160 0
-157 -159 0
-157 -160 0
-159 -160 0
-161 -162 0
-161 -163 0
-161 -164 0
-161 -165 0
-162 -163 0
-162 -164 0
-162 -165 0
-163 -164 0
-163 -165 0
-164 -165 0
-166 -167 0
-166 -168 0
-166 -169 0
-167 -168 0
-167 -169 0
-168 -169 0
-171 -172 0
-171 -173 0
-171 -174 0
-171 -175 0
-172 -173 0
-172 -174 0
-172 -175 0
-173 -174 0
-173 -175 0
-174 -175 0
